
(set-logic ALL) 

(declare-datatype MyList ((Nil) (Cons (head Real) (tail MyList)) )) 
(declare-fun l0 () MyList) 
(declare-fun l1 () MyList) 
(declare-fun l2 () MyList) 
(declare-fun l3 () MyList) 
(declare-fun i0 () Real) 
(declare-fun i1 () Real) 
(assert (= l1 l3) )
(assert (not (= l2 Nil)) )
(assert (and (= l2 l2) (= l0 Nil) (is-Nil Nil) (is-Nil Nil)) )
(assert (or (= l3 Nil) (is-Cons Nil)) )
(assert (= l0 Nil) )
(assert (is-Nil Nil) )
(assert (and (= l0 Nil) (is-Nil Nil) (= l1 Nil)) )
(assert (not (= l3 Nil)) )
(check-sat)
